c *********************************
c * Circuit generated by BenCGen
c *
c * CarrySkipAdder_16_16_16_InOut_G4T
c *
c * Ports with 1 gate(s): 6
c * Ports with 2 gate(s): 89
c * Ports with 4 gate(s): 4
c * Total gates: 99
c *********************************
p cnf 131 331
1 51 0
-1 -51 0
1 -50 0
51 -50 0
-1 -51 50 0
1 17 -54 0
-1 17 54 0
1 -17 54 0
-1 -17 -54 0
54 50 -33 0
-54 50 33 0
54 -50 33 0
-54 -50 -33 0
50 -55 0
54 -55 0
-50 -54 55 0
17 -56 0
1 -56 0
-17 -1 56 0
-55 53 0
-56 53 0
55 56 -53 0
2 18 -58 0
-2 18 58 0
2 -18 58 0
-2 -18 -58 0
58 53 -34 0
-58 53 34 0
58 -53 34 0
-58 -53 -34 0
53 -59 0
58 -59 0
-53 -58 59 0
18 -60 0
2 -60 0
-18 -2 60 0
-59 57 0
-60 57 0
59 60 -57 0
3 19 -62 0
-3 19 62 0
3 -19 62 0
-3 -19 -62 0
62 57 -35 0
-62 57 35 0
62 -57 35 0
-62 -57 -35 0
57 -63 0
62 -63 0
-57 -62 63 0
19 -64 0
3 -64 0
-19 -3 64 0
-63 61 0
-64 61 0
63 64 -61 0
4 20 -65 0
-4 20 65 0
4 -20 65 0
-4 -20 -65 0
65 61 -36 0
-65 61 36 0
65 -61 36 0
-65 -61 -36 0
61 -66 0
65 -66 0
-61 -65 66 0
20 -67 0
4 -67 0
-20 -4 67 0
-66 52 0
-67 52 0
66 67 -52 0
54 -68 0
58 -68 0
62 -68 0
65 -68 0
-54 -58 -62 -65 68 0
67 -69 0
-67 69 0
50 -70 0
68 -70 0
-50 -68 70 0
-70 71 0
-52 71 0
70 52 -71 0
5 21 -74 0
-5 21 74 0
5 -21 74 0
-5 -21 -74 0
74 71 -37 0
-74 71 37 0
74 -71 37 0
-74 -71 -37 0
71 -75 0
74 -75 0
-71 -74 75 0
21 -76 0
5 -76 0
-21 -5 76 0
-75 73 0
-76 73 0
75 76 -73 0
6 22 -78 0
-6 22 78 0
6 -22 78 0
-6 -22 -78 0
78 73 -38 0
-78 73 38 0
78 -73 38 0
-78 -73 -38 0
73 -79 0
78 -79 0
-73 -78 79 0
22 -80 0
6 -80 0
-22 -6 80 0
-79 77 0
-80 77 0
79 80 -77 0
7 23 -82 0
-7 23 82 0
7 -23 82 0
-7 -23 -82 0
82 77 -39 0
-82 77 39 0
82 -77 39 0
-82 -77 -39 0
77 -83 0
82 -83 0
-77 -82 83 0
23 -84 0
7 -84 0
-23 -7 84 0
-83 81 0
-84 81 0
83 84 -81 0
8 24 -85 0
-8 24 85 0
8 -24 85 0
-8 -24 -85 0
85 81 -40 0
-85 81 40 0
85 -81 40 0
-85 -81 -40 0
81 -86 0
85 -86 0
-81 -85 86 0
24 -87 0
8 -87 0
-24 -8 87 0
-86 72 0
-87 72 0
86 87 -72 0
74 -88 0
78 -88 0
82 -88 0
85 -88 0
-74 -78 -82 -85 88 0
87 -89 0
-87 89 0
71 -90 0
88 -90 0
-71 -88 90 0
-90 91 0
-72 91 0
90 72 -91 0
9 25 -94 0
-9 25 94 0
9 -25 94 0
-9 -25 -94 0
94 91 -41 0
-94 91 41 0
94 -91 41 0
-94 -91 -41 0
91 -95 0
94 -95 0
-91 -94 95 0
25 -96 0
9 -96 0
-25 -9 96 0
-95 93 0
-96 93 0
95 96 -93 0
10 26 -98 0
-10 26 98 0
10 -26 98 0
-10 -26 -98 0
98 93 -42 0
-98 93 42 0
98 -93 42 0
-98 -93 -42 0
93 -99 0
98 -99 0
-93 -98 99 0
26 -100 0
10 -100 0
-26 -10 100 0
-99 97 0
-100 97 0
99 100 -97 0
11 27 -102 0
-11 27 102 0
11 -27 102 0
-11 -27 -102 0
102 97 -43 0
-102 97 43 0
102 -97 43 0
-102 -97 -43 0
97 -103 0
102 -103 0
-97 -102 103 0
27 -104 0
11 -104 0
-27 -11 104 0
-103 101 0
-104 101 0
103 104 -101 0
12 28 -105 0
-12 28 105 0
12 -28 105 0
-12 -28 -105 0
105 101 -44 0
-105 101 44 0
105 -101 44 0
-105 -101 -44 0
101 -106 0
105 -106 0
-101 -105 106 0
28 -107 0
12 -107 0
-28 -12 107 0
-106 92 0
-107 92 0
106 107 -92 0
94 -108 0
98 -108 0
102 -108 0
105 -108 0
-94 -98 -102 -105 108 0
107 -109 0
-107 109 0
91 -110 0
108 -110 0
-91 -108 110 0
-110 111 0
-92 111 0
110 92 -111 0
13 29 -114 0
-13 29 114 0
13 -29 114 0
-13 -29 -114 0
114 111 -45 0
-114 111 45 0
114 -111 45 0
-114 -111 -45 0
111 -115 0
114 -115 0
-111 -114 115 0
29 -116 0
13 -116 0
-29 -13 116 0
-115 113 0
-116 113 0
115 116 -113 0
14 30 -118 0
-14 30 118 0
14 -30 118 0
-14 -30 -118 0
118 113 -46 0
-118 113 46 0
118 -113 46 0
-118 -113 -46 0
113 -119 0
118 -119 0
-113 -118 119 0
30 -120 0
14 -120 0
-30 -14 120 0
-119 117 0
-120 117 0
119 120 -117 0
15 31 -122 0
-15 31 122 0
15 -31 122 0
-15 -31 -122 0
122 117 -47 0
-122 117 47 0
122 -117 47 0
-122 -117 -47 0
117 -123 0
122 -123 0
-117 -122 123 0
31 -124 0
15 -124 0
-31 -15 124 0
-123 121 0
-124 121 0
123 124 -121 0
16 32 -125 0
-16 32 125 0
16 -32 125 0
-16 -32 -125 0
125 121 -48 0
-125 121 48 0
125 -121 48 0
-125 -121 -48 0
121 -126 0
125 -126 0
-121 -125 126 0
32 -127 0
16 -127 0
-32 -16 127 0
-126 112 0
-127 112 0
126 127 -112 0
114 -128 0
118 -128 0
122 -128 0
125 -128 0
-114 -118 -122 -125 128 0
127 -129 0
-127 129 0
111 -130 0
128 -130 0
-111 -128 130 0
-130 131 0
-112 131 0
130 112 -131 0
131 -49 0
-131 49 0
